(set-info :smt-lib-version 2.6)
(set-logic QF_S)
(set-info :source |
Generated by: Murphy Berzish, Mitja Kulczynski, Federico Mora, Florin Manea, Joel Day, Dirk Nowotka, Vijay Ganesh, Zhengyang Lu
Generated on: 2020-10-01
Description: Translated from a collection of real-world regex queries, AutomataArk, collected by Loris D’Antoni and Fang Wang: https://github.com/lorisdanto/automatark
Application: Evaluate solvers on real-world regex queries
Target solver: Z3str3RE, CVC4, OSTRICH, Z3seq, Z3str3, Z3-Trau
Publications: Berzish, M., Kulczynski, M., Mora, F., Manea, F., Day, J. D., Nowotka, D., & Ganesh, V. (2021, July). An SMT solver for regular expressions and linear arithmetic over string length. In CAV 2021.
|)
(set-info :license "https://creativecommons.org/licenses/by/4.0/")
(set-info :category "industrial")
(set-info :status unsat)

(declare-const X String)
(assert (str.in_re X (re.++ (str.to_re "UploadFriendly is an easy to use Java Applet that will allow multiple file uploads on a web server in a web page") re.allchar (str.to_re " The control supports file filtering, limits and more") re.allchar (str.to_re " Samples available in the following languages: ASP, ASP") re.allchar (str.to_re "NET, PHP, Coldfusion and JSP\u{a}"))))
(assert (str.in_re X (re.++ (str.to_re "upgrade.qsrch.info") (re.* (re.union (str.to_re "\u{a}") (str.to_re "\u{d}"))) (str.to_re "dcww.dmcast.com\u{a}"))))
(assert (str.in_re X (re.++ (str.to_re "/filename=") (re.opt (re.union (str.to_re "\u{22}") (str.to_re "'"))) (re.* (re.comp (str.to_re "\u{a}"))) (str.to_re ".wpd") (re.union (str.to_re "\u{22}") (str.to_re "'") (str.to_re " ") (str.to_re "\u{9}") (str.to_re "\u{a}") (str.to_re "\u{c}") (str.to_re "\u{d}")) (str.to_re "/si\u{a}"))))
(assert (str.in_re X (str.to_re "Host:User-Agent:www.raxsearch.com\u{a}")))
(check-sat)

(exit)
